experiments/eusolverbv/4/TrainGenes/1000101010000000000110000000011000000000000/297_.sl

(set-logic BV)

(define-fun shr1 ((x (BitVec 64))) (BitVec 64) (bvlshr x #x0000000000000001))
(define-fun shr4 ((x (BitVec 64))) (BitVec 64) (bvlshr x #x0000000000000004))
(define-fun shr16 ((x (BitVec 64))) (BitVec 64) (bvlshr x #x0000000000000010))
(define-fun shl1 ((x (BitVec 64))) (BitVec 64) (bvshl x #x0000000000000001))
(define-fun if0 ((x (BitVec 64)) (y (BitVec 64)) (z (BitVec 64))) (BitVec 64) (ite (= x #x0000000000000001) y z))
(define-fun func22  ((A (BitVec 64)) ) (BitVec 64) (bvand A  #x0000000000000001 ))
(define-fun func23  ((A (BitVec 64)) (B (BitVec 64)) (C (BitVec 64)) ) (BitVec 64) (bvand (bvlshr B  C ) A ))
(define-fun func24  ((A (BitVec 64)) (B (BitVec 64)) ) (BitVec 64) (bvand (bvlshr B  #x0000000000000001 ) A ))
(define-fun func25  ((A (BitVec 64)) (B (BitVec 64)) ) (BitVec 64) (bvand (bvlshr B  #x0000000000000010 ) A ))
(define-fun func26  ((A (BitVec 64)) (B (BitVec 64)) ) (BitVec 64) (bvand (bvlshr B  #x0000000000000004 ) A ))
(define-fun func27  ((A (BitVec 64)) (B (BitVec 64)) (C (BitVec 64)) (D (BitVec 64)) ) (BitVec 64) (bvand (bvlshr (bvlshr C  D ) B ) A ))
(define-fun func28  ((A (BitVec 64)) (B (BitVec 64)) ) (BitVec 64) (bvand (bvlshr A  B ) #x0000000000000001 ))
(define-fun func29  ((A (BitVec 64)) (B (BitVec 64)) ) (BitVec 64) (bvlshr A  B ))
(define-fun func30  ((A (BitVec 64)) (B (BitVec 64)) (C (BitVec 64)) ) (BitVec 64) (bvlshr (bvlshr B  C ) A ))
(define-fun func31  ((A (BitVec 64)) (B (BitVec 64)) ) (BitVec 64) (bvlshr (bvlshr B  #x0000000000000010 ) A ))
(define-fun func32  ((A (BitVec 64)) (B (BitVec 64)) ) (BitVec 64) (bvlshr (bvlshr B  #x0000000000000004 ) A ))
(define-fun func33  ((A (BitVec 64)) (B (BitVec 64)) (C (BitVec 64)) (D (BitVec 64)) ) (BitVec 64) (bvlshr (bvlshr (bvlshr C  D ) B ) A ))
(define-fun func34  ((A (BitVec 64)) (B (BitVec 64)) (C (BitVec 64)) ) (BitVec 64) (bvlshr (bvlshr (bvlshr C  #x0000000000000010 ) B ) A ))
(define-fun func35  ((A (BitVec 64)) (B (BitVec 64)) ) (BitVec 64) (bvlshr (bvlshr B  #x0000000000000001 ) A ))
(define-fun func36  ((A (BitVec 64)) (B (BitVec 64)) ) (BitVec 64) (bvlshr (bvlshr A  B ) #x0000000000000001 ))
(define-fun func37  ((A (BitVec 64)) (B (BitVec 64)) ) (BitVec 64) (bvlshr (bvlshr A  B ) #x0000000000000004 ))
(define-fun func38  ((A (BitVec 64)) (B (BitVec 64)) (C (BitVec 64)) ) (BitVec 64) (bvlshr (bvshl B  C ) A ))
(define-fun func39  ((A (BitVec 64)) (B (BitVec 64)) ) (BitVec 64) (bvlshr (bvshl B  #x0000000000000001 ) A ))
(define-fun func40  ((A (BitVec 64)) (B (BitVec 64)) ) (BitVec 64) (bvlshr (bvnot B ) A ))
(define-fun func41  ((A (BitVec 64)) ) (BitVec 64) (bvlshr (bvnot A ) #x0000000000000010 ))
(define-fun func42  ((A (BitVec 64)) (B (BitVec 64)) (C (BitVec 64)) ) (BitVec 64) (bvlshr (bvadd B  C ) A ))
(define-fun func44  ((A (BitVec 64)) (B (BitVec 64)) (C (BitVec 64)) ) (BitVec 64) (bvshl (bvlshr B  C ) A ))
(define-fun func45  ((A (BitVec 64)) (B (BitVec 64)) ) (BitVec 64) (bvshl (bvlshr B  #x0000000000000001 ) A ))
(define-fun func46  ((A (BitVec 64)) (B (BitVec 64)) ) (BitVec 64) (bvshl (bvlshr A  B ) #x0000000000000001 ))
(define-fun func47  ((A (BitVec 64)) (B (BitVec 64)) ) (BitVec 64) (bvshl (bvnot B ) A ))
(define-fun func48  ((A (BitVec 64)) ) (BitVec 64) (bvshl (bvnot A ) #x0000000000000001 ))
(define-fun func50  ((A (BitVec 64)) ) (BitVec 64) (bvnot (bvshl A  #x0000000000000001 )))
(define-fun func51  ((A (BitVec 64)) ) (BitVec 64) (bvadd A  #x0000000000000001 ))
(define-fun func52  ((A (BitVec 64)) (B (BitVec 64)) (C (BitVec 64)) ) (BitVec 64) (bvadd (bvlshr B  C ) A ))
(define-fun func53  ((A (BitVec 64)) (B (BitVec 64)) (C (BitVec 64)) ) (BitVec 64) (bvadd (bvshl B  C ) A ))
(define-fun func54  ((A (BitVec 64)) (B (BitVec 64)) ) (BitVec 64) (bvadd (bvshl B  #x0000000000000001 ) A ))
(define-fun func55  ((A (BitVec 64)) ) (BitVec 64) (bvor A  #x0000000000000001 ))
(define-fun func56  ((A (BitVec 64)) (B (BitVec 64)) (C (BitVec 64)) ) (BitVec 64) (bvor (bvlshr B  C ) A ))
(synth-fun f ( (x (BitVec 64))) (BitVec 64)
(
(Start (BitVec 64) (
   #x0000000000000000
   #x0000000000000001
   x
   (func22 Start)
   (func26 Start Start)
   (func28 Start Start)
   (func30 Start Start Start)
   (func41 Start)
   (func42 Start Start Start)
   (func53 Start Start Start)
   (func54 Start Start)
   (bvnot Start)
   (shl1 Start)
   (shr1 Start)
   (shr4 Start)
   (shr16 Start)
   (bvand Start Start)
   (bvor Start Start)
   (bvxor Start Start)
   (bvadd Start Start)
   (if0 Start Start Start)
))
))
(constraint (= (f #x46eb4acbae3ebb6c) #xdc8a5a9a28e0a248))
(constraint (= (f #x6d6b1c4668503114) #xc94a71dccbd7e774))
(constraint (= (f #xd3147e84404cb642) #x9675c0bddfd9a4df))
(constraint (= (f #x788d22c25236a736) #xc3b96e9ed6e4ac65))
(constraint (= (f #xc82f9e3267c64590) #x9be830e6cc1cdd36))
(constraint (= (f #x10ffb82a792100ae) #xfffffffffffffffe))
(constraint (= (f #x87bb7ee647e52b52) #xfffffffffffffffe))
(constraint (= (f #xbe006e89aee77cbc) #xfffffffffffffffe))
(constraint (= (f #xbf02ed455b499ec4) #xfffffffffffffffe))
(constraint (= (f #x7748d39f14118a56) #xfffffffffffffffe))
(constraint (= (f #xb9e042e4c9def7bf) #x73c085c993bdef7e))
(constraint (= (f #xfacaaf9f48c63ad1) #xf5955f3e918c75a2))
(constraint (= (f #x79cc5f7256886fa7) #xf398bee4ad10df4e))
(constraint (= (f #x141e46aa790cfb67) #x283c8d54f219f6ce))
(constraint (= (f #xe6267c36b4ead985) #xcc4cf86d69d5b30a))
(constraint (= (f #x852c387034304853) #x852c387034304854))
(constraint (= (f #x052800e1a4349215) #x052800e1a4349216))
(constraint (= (f #x52c1801e094a041d) #x52c1801e094a041e))
(constraint (= (f #x149687040a40d295) #x149687040a40d296))
(constraint (= (f #x9683c29481a00839) #x9683c29481a0083a))
(constraint (= (f #x1b7d68ab3697ab6d) #x36fad1566d2f56da))
(constraint (= (f #x8b759bc2442bdc57) #x16eb37848857b8ae))
(constraint (= (f #xc870f3338151dbbf) #x90e1e66702a3b77e))
(constraint (= (f #xfef3873f4a7f45f7) #xfde70e7e94fe8bee))
(constraint (= (f #x90339b504def6f9f) #x206736a09bdedf3e))
(constraint (= (f #x384292c21c292493) #x384292c21c292494))
(constraint (= (f #xc30180b48161041b) #xc30180b48161041c))
(constraint (= (f #x1a034060b4870879) #x1a034060b487087a))
(constraint (= (f #x6961e0e160414a17) #x6961e0e160414a18))
(constraint (= (f #x248782860f0d041f) #x248782860f0d0420))
(constraint (= (f #x870d1b95e775f8e7) #x0e1a372bceebf1ce))
(constraint (= (f #xceb97454704ff427) #x9d72e8a8e09fe84e))
(constraint (= (f #xab534470dc0c2539) #x56a688e1b8184a72))
(constraint (= (f #x4ff0ce446abf003c) #xfffffffffffffffe))
(constraint (= (f #xc4aaac5e889bcf51) #x895558bd11379ea2))
(constraint (= (f #x7b5a7825c6a15e33) #xf6b4f04b8d42bc66))
(constraint (= (f #xa66aec9d34ca7fe8) #xacca89b1659ac00a))
(constraint (= (f #x12370c87c9cad36f) #x246e190f9395a6de))
(constraint (= (f #x750b1e266a19e07f) #xea163c4cd433c0fe))
(constraint (= (f #xbea1385a39a77dbf) #x7d4270b4734efb7e))
(constraint (= (f #x90d218784301e031) #x90d218784301e032))
(constraint (= (f #xce01041f9ea2b39e) #x98ff7df030aea631))
(constraint (= (f #x10c3861a48428613) #x10c3861a48428614))
(constraint (= (f #xbd7c94c97a713106) #xfffffffffffffffe))
(constraint (= (f #xb601024b1bb7100c) #xfffffffffffffffe))
(check-synth)
