experiments/eusolverbv/4/TrainGenes/1000101010000000000110000000011000000000000/297_.out
(define-fun f ((x (BitVec 64))) (BitVec 64)
     (if0 (func22 x) (if0 (func26 x x) (bvadd x #x0000000000000001) (shl1 x)) (if0 (func22 (func41 x)) (if0 (func22 (shr1 x)) (bvnot (shl1 (shr1 (shr1 x)))) (bvnot (shr1 (func54 x #x0000000000000001)))) (bvnot #x0000000000000001))))
2.7555443570017815
